
Gurobi 10.0.1 (linux64) logging started Fri Apr  4 10:12:50 2025

Set parameter LogFile to value "Results/OneScenarioExperiments/option1_without_equality_constraints.log"
Set parameter TimeLimit to value 84600
Warning: linear constraint 797496 and linear constraint 797497 have the same name "storage_equal[1,2,1]"
Warning: default constraint names used to write mps file
Gurobi Optimizer version 10.0.1 build v10.0.1rc0 (linux64)

CPU model: AMD EPYC 9654 96-Core Processor, instruction set [SSE2|AVX|AVX2|AVX512]
Thread count: 192 physical cores, 192 logical processors, using up to 32 threads

Academic license 656792 - for non-commercial use only - registered to b.___@student.vu.nl
Optimize a model with 1703600 rows, 1948128 columns and 7223504 nonzeros
Model fingerprint: 0x4b186951
Coefficient statistics:
  Matrix range     [2e-01, 1e+00]
  Objective range  [6e-05, 5e+00]
  Bounds range     [0e+00, 0e+00]
  RHS range        [1e-02, 1e+03]
Presolve removed 1462602 rows and 1548265 columns
Presolve time: 4.37s
Presolved: 240998 rows, 399890 columns, 1511400 nonzeros

Concurrent LP optimizer: primal simplex, dual simplex, and barrier
Showing barrier log only...

Ordering time: 1.74s

Barrier statistics:
 AA' NZ     : 1.945e+06
 Factor NZ  : 2.160e+07 (roughly 240 MB of memory)
 Factor Ops : 1.926e+10 (less than 1 second per iteration)
 Threads    : 30

                  Objective                Residual
Iter       Primal          Dual         Primal    Dual     Compl     Time
   0  -3.10781178e+05  2.11029870e+08  7.82e+03 7.54e+01  3.41e+04     7s
   1  -1.00656732e+07  1.63107968e+08  1.98e+03 1.12e+01  7.57e+03     7s
   2  -1.08632675e+07  7.09456549e+07  4.78e+02 7.05e-01  1.41e+03     7s
   3  -5.30308510e+06  1.65228612e+07  7.11e+01 5.25e-02  2.35e+02     7s
   4  -1.31050694e+06  6.12826278e+06  1.34e+01 1.38e-02  6.01e+01     7s
   5  -5.58493958e+05  2.73550096e+06  4.79e+00 5.46e-03  2.41e+01     7s
   6  -2.26226034e+05  1.02143911e+06  1.78e+00 1.76e-03  8.46e+00     8s
   7  -3.64040015e+04  2.65207130e+05  2.59e-01 3.28e-04  1.80e+00     8s
   8   5.33526832e+03  7.26006402e+04  2.90e-02 6.33e-05  3.75e-01     8s
   9   1.21129053e+04  4.41640217e+04  1.37e-02 2.89e-05  1.77e-01     8s
  10   1.59736754e+04  3.26712153e+04  6.74e-03 1.48e-05  9.15e-02     8s
  11   1.84825961e+04  2.74700740e+04  3.02e-03 8.01e-06  4.88e-02     8s
  12   1.98019590e+04  2.54153582e+04  1.39e-03 5.40e-06  3.02e-02     8s
  13   2.03480891e+04  2.38556748e+04  8.23e-04 3.39e-06  1.88e-02     8s
  14   2.08706141e+04  2.24874715e+04  3.49e-04 1.47e-06  8.66e-03     8s
  15   2.11362827e+04  2.18937865e+04  1.57e-04 6.57e-07  4.06e-03     8s
  16   2.12225390e+04  2.17320095e+04  1.03e-04 4.36e-07  2.73e-03     8s
  17   2.12761133e+04  2.16418171e+04  7.29e-05 3.11e-07  1.96e-03     9s
  18   2.13533604e+04  2.14669682e+04  3.03e-05 6.34e-08  6.14e-04     9s
  19   2.13905034e+04  2.14414535e+04  1.20e-05 2.91e-08  2.75e-04     9s
  20   2.14106095e+04  2.14291787e+04  3.02e-06 1.32e-08  9.93e-05     9s
  21   2.14167178e+04  2.14198210e+04  4.75e-07 1.60e-09  1.66e-05     9s
  22   2.14177351e+04  2.14189756e+04  1.81e-07 6.20e-10  6.63e-06     9s
  23   2.14181318e+04  2.14186491e+04  7.38e-08 2.36e-10  2.77e-06     9s
  24   2.14182571e+04  2.14185582e+04  4.17e-08 1.39e-10  1.61e-06     9s
  25   2.14183539e+04  2.14185024e+04  1.70e-08 7.71e-11  7.92e-07     9s
  26   2.14184042e+04  2.14184441e+04  5.16e-09 1.51e-11  2.14e-07     9s
  27   2.14184257e+04  2.14184304e+04  2.42e-09 1.66e-12  2.53e-08    10s
  28   2.14184276e+04  2.14184285e+04  1.39e-07 5.53e-13  5.02e-09    10s
  29   2.14184281e+04  2.14184284e+04  2.48e-06 8.27e-13  1.61e-09    10s
  30   2.14184283e+04  2.14184284e+04  9.34e-07 6.28e-13  5.92e-10    10s

Barrier solved model in 30 iterations and 9.87 seconds (9.88 work units)
Optimal objective 2.14184283e+04

Crossover log...

   36861 DPushes remaining with DInf 1.3971594e-03                10s
   11241 DPushes remaining with DInf 0.0000000e+00                10s
       0 DPushes remaining with DInf 0.0000000e+00                10s

   19881 PPushes remaining with PInf 2.1749724e-04                10s
       0 PPushes remaining with PInf 0.0000000e+00                10s

  Push phase complete: Pinf 0.0000000e+00, Dinf 3.4250000e-01     10s

Iteration    Objective       Primal Inf.    Dual Inf.      Time
   52242    2.1418428e+04   0.000000e+00   3.425000e-01     10s

Solved with barrier
Extra simplex iterations after uncrush: 3
   53659    2.1418428e+04   0.000000e+00   0.000000e+00     11s

Use crossover to convert LP symmetric solution to basic solution...
Crossover log...

    2812 DPushes remaining with DInf 0.0000000e+00                11s
       0 DPushes remaining with DInf 0.0000000e+00                11s

    4667 PPushes remaining with PInf 0.0000000e+00                11s
       0 PPushes remaining with PInf 0.0000000e+00                11s

  Push phase complete: Pinf 0.0000000e+00, Dinf 3.7791708e-12     11s

Iteration    Objective       Primal Inf.    Dual Inf.      Time
   71788    2.1418777e+04   0.000000e+00   3.526003e+05     16s
   78192    2.1418867e+04   0.000000e+00   1.844073e+06     22s
   80840    2.1418882e+04   0.000000e+00   1.189845e+06     25s
   83833    2.1418889e+04   0.000000e+00   3.490756e+05     31s
   87212    2.1418895e+04   0.000000e+00   7.013713e+05     36s
   88616    2.1418897e+04   0.000000e+00   1.226477e+06     40s
   90527    2.1418901e+04   0.000000e+00   2.221814e+06     47s
   92097    2.1418903e+04   0.000000e+00   4.877509e+04     51s
   93506    2.1418905e+04   0.000000e+00   1.830369e+06     56s
   94780    2.1418907e+04   0.000000e+00   9.285289e+05     60s
   96769    2.1418911e+04   0.000000e+00   5.051618e+05     67s
   98043    2.1418914e+04   0.000000e+00   1.408284e+06     72s
   99317    2.1418917e+04   0.000000e+00   1.628946e+05     77s
  100591    2.1418918e+04   0.000000e+00   3.131456e+04     82s
  101228    2.1418918e+04   0.000000e+00   2.191722e+05     86s
  102502    2.1418919e+04   0.000000e+00   1.063292e+05     92s
  103139    2.1418920e+04   0.000000e+00   8.255104e+04     95s
  104413    2.1418920e+04   0.000000e+00   8.789319e+04    102s
  105050    2.1418921e+04   0.000000e+00   3.330439e+05    106s
  106324    2.1418921e+04   0.000000e+00   1.804298e+05    113s
  106961    2.1418922e+04   0.000000e+00   1.298465e+05    116s
  108235    2.1418922e+04   0.000000e+00   2.812980e+04    124s
  108872    2.1418922e+04   0.000000e+00   1.472660e+05    128s
  109509    2.1418923e+04   0.000000e+00   1.186326e+04    132s
  110146    2.1418923e+04   0.000000e+00   4.886010e+04    136s
  111420    2.1418923e+04   0.000000e+00   4.385150e+04    143s
  112057    2.1418923e+04   0.000000e+00   1.127351e+04    146s
  113331    2.1418924e+04   0.000000e+00   8.267977e+03    152s
  114605    2.1418924e+04   0.000000e+00   1.614110e+04    158s
  115273    2.1418924e+04   0.000000e+00   5.015860e+04    161s
  116547    2.1418924e+04   0.000000e+00   5.376989e+04    167s
  117821    2.1418925e+04   0.000000e+00   8.866856e+03    172s
  119102    2.1418925e+04   0.000000e+00   1.166484e+04    178s
  119753    2.1418925e+04   0.000000e+00   8.113868e+03    181s
  121032    2.1418925e+04   0.000000e+00   5.164788e+03    187s
  122306    2.1418925e+04   0.000000e+00   9.073972e+03    193s
  122943    2.1418925e+04   0.000000e+00   4.695327e+03    197s
  123580    2.1418925e+04   0.000000e+00   6.866209e+03    201s
  124854    2.1418926e+04   0.000000e+00   5.695925e+03    210s
  125491    2.1418926e+04   0.000000e+00   5.884653e+03    214s
  126128    2.1418926e+04   0.000000e+00   1.575719e+04    219s
  126765    2.1418926e+04   0.000000e+00   4.004487e+03    223s
  127402    2.1418926e+04   0.000000e+00   4.874370e+04    228s
  128039    2.1418926e+04   0.000000e+00   2.552614e+03    232s
  128676    2.1418926e+04   0.000000e+00   9.625826e+03    237s
  129313    2.1418926e+04   0.000000e+00   3.042497e+03    242s
  129950    2.1418926e+04   0.000000e+00   4.361544e+03    247s
  130587    2.1418926e+04   0.000000e+00   2.194419e+04    252s
  131224    2.1418926e+04   0.000000e+00   1.394955e+04    257s
  131861    2.1418926e+04   0.000000e+00   2.480691e+03    262s
  132498    2.1418926e+04   0.000000e+00   3.121224e+03    266s
  133135    2.1418926e+04   0.000000e+00   3.197109e+03    272s
  133772    2.1418926e+04   0.000000e+00   3.674732e+03    278s
  134409    2.1418926e+04   0.000000e+00   1.761636e+03    283s
  135046    2.1418926e+04   0.000000e+00   2.888305e+03    289s
  135683    2.1418926e+04   0.000000e+00   5.506604e+03    294s
  136320    2.1418926e+04   0.000000e+00   1.516307e+04    299s
  136957    2.1418926e+04   0.000000e+00   3.128448e+03    304s
  137594    2.1418926e+04   0.000000e+00   1.922112e+03    310s
  138231    2.1418926e+04   0.000000e+00   7.974542e+02    315s
  138868    2.1418926e+04   0.000000e+00   3.524656e+02    320s
  139505    2.1418926e+04   0.000000e+00   1.145777e+04    326s
  140142    2.1418926e+04   0.000000e+00   1.264599e+03    331s
  140779    2.1418926e+04   0.000000e+00   2.507700e+03    336s
  141416    2.1418926e+04   0.000000e+00   1.444739e+03    342s
  142053    2.1418926e+04   0.000000e+00   4.686915e+02    347s
  142690    2.1418926e+04   0.000000e+00   1.736776e+03    351s
  143327    2.1418926e+04   0.000000e+00   4.708009e+03    356s
  143964    2.1418926e+04   0.000000e+00   5.696283e+02    362s
  144601    2.1418927e+04   0.000000e+00   3.657991e+02    367s
  145238    2.1418927e+04   0.000000e+00   2.743481e+02    372s
  145875    2.1418927e+04   0.000000e+00   5.347221e+02    376s
  146512    2.1418927e+04   0.000000e+00   4.532388e+02    380s
  147786    2.1418927e+04   0.000000e+00   6.890788e+01    387s
  148423    2.1418927e+04   0.000000e+00   4.601296e+01    390s
  149697    2.1418927e+04   0.000000e+00   5.446713e+01    398s
  150334    2.1418927e+04   0.000000e+00   1.877860e+01    402s
  150971    2.1418927e+04   0.000000e+00   1.112608e+02    406s
Extra simplex iterations after uncrush: 90469
  151585    2.1418428e+04   0.000000e+00   0.000000e+00    411s

Solved in 151585 iterations and 410.86 seconds (537.98 work units)
Optimal objective  2.141842844e+04
